c "736721.clq"
p edge 100 384
e 1 5
e 1 6
e 1 9
e 1 10
e 1 13
e 1 15
e 1 29
e 1 33
e 1 67
e 1 69
e 1 92
e 2 5
e 2 6
e 2 7
e 2 12
e 2 20
e 2 45
e 2 52
e 2 75
e 3 5
e 3 6
e 3 7
e 3 8
e 3 14
e 3 22
e 3 24
e 3 42
e 3 60
e 3 62
e 3 63
e 3 67
e 4 5
e 4 9
e 4 34
e 5 6
e 5 7
e 5 8
e 5 9
e 5 10
e 5 11
e 5 12
e 5 14
e 5 15
e 5 16
e 5 17
e 5 18
e 5 19
e 5 23
e 5 24
e 5 26
e 5 27
e 5 28
e 5 29
e 5 30
e 5 31
e 5 32
e 5 35
e 5 36
e 5 37
e 5 41
e 5 47
e 5 49
e 5 50
e 5 51
e 5 55
e 5 56
e 5 60
e 5 61
e 5 62
e 5 63
e 5 67
e 5 69
e 5 70
e 5 71
e 5 77
e 5 78
e 5 83
e 5 84
e 5 91
e 5 92
e 5 94
e 6 7
e 6 8
e 6 13
e 6 14
e 6 21
e 6 34
e 6 44
e 6 46
e 6 57
e 6 61
e 6 85
e 6 91
e 7 8
e 7 9
e 7 10
e 7 11
e 7 12
e 7 16
e 7 17
e 7 22
e 7 26
e 7 31
e 7 32
e 7 36
e 7 39
e 7 43
e 7 46
e 7 47
e 7 50
e 7 56
e 7 70
e 7 71
e 7 74
e 7 80
e 7 81
e 7 86
e 7 92
e 8 10
e 8 11
e 8 13
e 8 16
e 8 18
e 8 19
e 8 20
e 8 23
e 8 25
e 8 27
e 8 28
e 8 30
e 8 31
e 8 35
e 8 37
e 8 41
e 8 48
e 8 51
e 8 68
e 8 76
e 8 84
e 8 89
e 8 90
e 8 93
e 8 97
e 8 100
e 9 11
e 9 16
e 9 18
e 9 33
e 9 55
e 9 58
e 9 65
e 9 79
e 9 87
e 10 12
e 10 14
e 10 15
e 10 19
e 10 28
e 10 30
e 10 32
e 10 42
e 10 48
e 10 54
e 10 100
e 11 13
e 11 32
e 11 43
e 11 47
e 11 56
e 11 65
e 11 75
e 12 17
e 12 26
e 12 31
e 12 38
e 12 40
e 12 45
e 12 55
e 12 62
e 12 81
e 12 96
e 13 15
e 13 20
e 13 21
e 13 23
e 13 44
e 13 67
e 13 76
e 14 21
e 14 40
e 14 59
e 14 87
e 15 18
e 15 51
e 15 59
e 15 70
e 15 90
e 15 97
e 16 17
e 16 20
e 16 23
e 16 24
e 16 33
e 16 36
e 16 39
e 16 42
e 16 44
e 16 57
e 16 62
e 16 72
e 16 80
e 16 85
e 16 95
e 17 26
e 17 55
e 17 66
e 17 87
e 17 88
e 18 19
e 18 21
e 18 22
e 18 25
e 18 35
e 18 42
e 18 43
e 18 45
e 18 52
e 18 58
e 18 74
e 18 77
e 18 79
e 18 84
e 18 88
e 18 93
e 19 24
e 19 41
e 19 51
e 19 54
e 19 59
e 19 88
e 20 22
e 20 25
e 20 34
e 20 35
e 20 39
e 20 43
e 20 46
e 20 58
e 20 76
e 21 74
e 21 83
e 22 29
e 22 79
e 22 87
e 22 91
e 23 25
e 23 27
e 23 28
e 23 30
e 23 38
e 23 39
e 23 50
e 23 52
e 23 80
e 23 83
e 23 97
e 24 29
e 24 33
e 24 38
e 24 44
e 24 58
e 25 36
e 25 45
e 26 27
e 26 46
e 26 49
e 26 54
e 26 90
e 27 73
e 27 78
e 27 81
e 28 65
e 28 72
e 28 88
e 29 37
e 29 71
e 29 89
e 29 90
e 30 34
e 30 38
e 30 40
e 30 47
e 30 52
e 30 53
e 30 75
e 30 99
e 31 53
e 31 56
e 31 57
e 31 94
e 31 99
e 32 40
e 32 49
e 32 82
e 32 94
e 32 97
e 32 99
e 33 54
e 33 60
e 33 77
e 34 37
e 34 41
e 34 61
e 34 63
e 34 84
e 34 89
e 35 49
e 35 53
e 35 64
e 35 82
e 36 48
e 36 50
e 36 82
e 37 66
e 37 73
e 37 82
e 37 95
e 37 98
e 38 68
e 40 77
e 40 86
e 42 48
e 42 64
e 42 69
e 43 57
e 45 72
e 45 86
e 45 92
e 46 65
e 47 66
e 47 70
e 47 75
e 48 59
e 48 60
e 48 66
e 48 68
e 48 98
e 49 53
e 49 64
e 50 61
e 50 80
e 50 89
e 51 63
e 51 74
e 51 76
e 52 64
e 53 69
e 54 78
e 55 73
e 55 98
e 55 100
e 57 68
e 57 83
e 58 71
e 58 93
e 58 95
e 61 81
e 62 72
e 63 85
e 67 73
e 67 93
e 69 79
e 69 86
e 69 96
e 75 94
e 77 78
e 77 95
e 77 96
e 79 85
e 86 96
e 86 98
e 88 91
e 92 99
e 95 100
